100
128
11
48
7
20
3
14
63
61
31
17
12
34
44
14
12
18
3
48
55
15
2
19
40
55
51
43
7
46
12
23
55
2
54
2
4
44
35
50
56
35
62
50
1
39
30
11
47
42
62
63
3
48
59
2
45
48
64
64
3
38
8
50
2
3
59
41
32
1
1
5
3
34
39
1
3
1
47
1
47
60
64
1
8
2
28
1
5
4
4
5
3
35
31
8
2
1
35
51
6
5